c Read 4784 clauses.  1794 variables
c Breaking ties randomly with seed 1
c Placed 4784 terms into 845 buckets.
c Bucket 42 Reduced to term with 7 nodes
c Bucket 84 Reduced to term with 7 nodes
c Bucket 126 Reduced to term with 7 nodes
c Bucket 168 Reduced to term with 7 nodes
c Bucket 210 Reduced to term with 7 nodes
c Bucket 252 Reduced to term with 7 nodes
c Bucket 294 Reduced to term with 9 nodes
c Bucket 336 Reduced to term with 9 nodes
c Bucket 378 Reduced to term with 7 nodes
c Bucket 420 Reduced to term with 19 nodes
c Bucket 462 Reduced to term with 7 nodes
c Bucket 504 Reduced to term with 9 nodes
c Bucket 546 Reduced to term with 13 nodes
c Bucket 588 Reduced to term with 43 nodes
c Bucket 630 Reduced to term with 19 nodes
c Bucket 672 Reduced to term with 29 nodes
c Bucket 714 Reduced to term with 17 nodes
c Bucket 756 Reduced to term with 7 nodes
c Bucket 798 Reduced to term with 33 nodes
c Bucket 840 Reduced to term with 35 nodes
c Bucket 882 Reduced to term with 11 nodes
c Bucket 924 Reduced to term with 161 nodes
c Bucket 966 Reduced to term with 25 nodes
c Bucket 1008 Reduced to term with 525 nodes
c Garbage collection #1: 2000003 nodes / 1936747 free / 41589 previously freed  / 0.0s / 0.0s total
c Bucket 1050 Reduced to term with 707 nodes
c Bucket 1092 Reduced to term with 9 nodes
c Bucket 1134 Reduced to term with 565 nodes
c Garbage collection #2: 2000003 nodes / 1871087 free / 35818 previously freed  / 0.0s / 0.0s total
c Bucket 1176 Reduced to term with 11 nodes
c Bucket 1218 Reduced to term with 443 nodes
c Bucket 1470 Reduced to term with 59 nodes
s UNSATISFIABLE

c Cache statistics
c ----------------
c Unique Access:  328093
c Unique Chain:   12863
c Unique Hit:     63152
c Unique Miss:    262784
c => Hit rate =   0.19
c Operator Hits:  427493
c Operator Miss:  463140
c => Hit rate =   0.48
c Swap count =    0

c BDD statistics
c ----------------
c Total BDD nodes produced: 262784
c Input variables: 1794
c Input clauses: 4784
c Total clauses: 1698593
c Unused+non-BDD clause IDs: 22709 (1.3%)
c Maximum live clauses: 796711
c Deleted clauses: 1693809
c Final live clauses: 4784
c Total variables: 264576
c Elapsed seconds: 2.174
-rw-r--r--  1 bryant  staff  89703572 Mar 10 23:07 chew-600-123456.lrat
c parsed a formula with 1794 variables and 4784 clauses
c VERIFIED
c allocated 1024 4189717 136230
c Added clauses = 1698593.  Deleted clauses = 901883.  Max live clauses = 796711
c verification time = 1.05 secs
